
-9.5
-9.4
-8.8
-8.7
-8.7
-8.5
-8.3
-8.1
-8.1
-7.9
-7.9
-7.7
-7.6
-7.6
-7.6
-7.6
-7.6
-7.6
-7.5
-7.5
-7.5
-7.5
-7.5
-7.5
-7.5
-7.5
-7.5
-7.5
-7.5
-7.5
-9.45
-9.1
-8.85
-8.8
-8.6
-8.55
-8.35
-8.35
-8.2
-8.2
-8.05
-7.9
-7.85
-7.8
-7.8
-7.8
-7.8
-7.8
-7.75
-7.65
-7.65
-7.65
-7.65
-7.65
-7.65
-7.65
-7.65
-7.6
-7.6
-7.6
-7.6
-7.6
-9.9
-9.7
-9.15
-9.05
-8.8
-8.65
-8.5
-8.5
-8.4
-8.3
-8.3
-8.3
-8.3
-8.25
-8.2
-8.2
-8.15
-8.1
-8.05
-7.8
-7.8
-7.8
-7.8
-7.8
-7.8
-7.8
-7.8
-7.8
-7.8
-7.75
-7.75
-7.75
-7.75
-7.75
-7.75
-7.75
-7.75
-7.75
-7.75
-7.75